1605767
26 44 8214
44 64 16726
64 19 13332
19 3 4440
3 47 7248
47 1 7938
1 15 21569
15 62 14689
62 20 32196
20 2 17216
2 60 12947
60 23 5437
23 46 15612
46 12 9114
12 53 13536
53 0 18207
0 11 10465
11 41 4831
41 31 5759
31 55 1427
55 39 3489
39 4 3130
4 18 15574
18 48 8895
48 22 4353
22 59 7498
59 28 6419
28 5 14521
5 24 11949
24 29 1249
29 40 5056
40 37 39159
37 66 15200
66 63 14572
63 10 35955
10 65 13370
65 25 57991
25 54 61621
54 45 30985
45 33 36286
33 6 42208
6 42 52950
42 30 116978
30 21 39447
21 51 46274
51 32 101509
32 56 88918
56 17 27906
17 9 28652
9 13 62052
13 43 62420
43 27 76431
27 49 10810
49 52 48925
52 36 6554
36 61 30446
61 38 8740
38 50 11004
50 34 8926
34 67 19070
67 7 34471
7 35 11459
35 58 8563
58 14 17397
14 57 6904
57 8 1777
8 16 5356
16 26 1445
